\ Model vert
\ LP format - for model browsing. Use MPS format to capture full model detail.
Minimize
  - 1510.547443891194 S_coef + 5.780381466934437 Constant + [
   197370.501696 S_coef ^2 ] / 2 
Subject To
Bounds
 -1000 <= S_coef <= 1000
 Constant = 1
End
